p cnf 54 210
1 2 3 4 9 0
1 2 3 -4 13 0
1 2 -3 4 10 0
1 2 -3 -4 16 0
1 -2 3 4 5 0
1 -2 3 -4 6 0
1 -2 -3 4 7 0
1 -2 -3 -4 8 0
-1 2 3 4 11 0
-1 2 3 -4 12 0
-1 2 -3 4 17 0
-1 2 -3 -4 14 0
-1 -2 3 4 15 0
-1 -2 3 -4 13 0
18 19 20 21 1 2 3 4 23 0
18 19 20 21 1 2 3 -4 22 0
18 19 20 21 1 2 -3 4 22 0
18 19 20 21 1 2 -3 -4 22 0
18 19 20 21 1 -2 3 4 22 0
18 19 20 21 1 -2 3 -4 22 0
18 19 20 21 1 -2 -3 4 22 0
18 19 20 21 1 -2 -3 -4 22 0
18 19 20 21 -1 2 3 4 22 0
18 19 20 21 -1 2 3 -4 22 0
18 19 20 21 -1 2 -3 4 22 0
18 19 20 21 -1 2 -3 -4 22 0
18 19 20 21 -1 -2 3 4 22 0
18 19 20 21 -1 -2 3 -4 22 0
18 19 20 -21 1 2 3 4 22 0
18 19 20 -21 1 2 3 -4 26 0
18 19 20 -21 1 2 -3 4 25 0
18 19 20 -21 1 2 -3 -4 22 0
18 19 20 -21 1 -2 3 4 22 0
18 19 20 -21 1 -2 3 -4 22 0
18 19 20 -21 1 -2 -3 4 22 0
18 19 20 -21 1 -2 -3 -4 22 0
18 19 20 -21 -1 2 3 4 22 0
18 19 20 -21 -1 2 3 -4 22 0
18 19 20 -21 -1 2 -3 4 22 0
18 19 20 -21 -1 2 -3 -4 22 0
18 19 20 -21 -1 -2 3 4 22 0
18 19 20 -21 -1 -2 3 -4 22 0
18 19 -20 21 1 2 3 4 22 0
18 19 -20 21 1 2 3 -4 26 0
18 19 -20 21 1 2 -3 4 24 0
18 19 -20 21 1 2 -3 -4 27 0
18 19 -20 21 1 -2 3 4 22 0
18 19 -20 21 1 -2 3 -4 22 0
18 19 -20 21 1 -2 -3 4 22 0
18 19 -20 21 1 -2 -3 -4 22 0
18 19 -20 21 -1 2 3 4 22 0
18 19 -20 21 -1 2 3 -4 22 0
18 19 -20 21 -1 2 -3 4 22 0
18 19 -20 21 -1 2 -3 -4 22 0
18 19 -20 21 -1 -2 3 4 22 0
18 19 -20 21 -1 -2 3 -4 22 0
18 19 -20 -21 1 2 3 4 22 0
18 19 -20 -21 1 2 3 -4 22 0
18 19 -20 -21 1 2 -3 4 22 0
18 19 -20 -21 1 2 -3 -4 28 0
18 19 -20 -21 1 -2 3 4 44 0
18 19 -20 -21 1 -2 3 -4 22 0
18 19 -20 -21 1 -2 -3 4 22 0
18 19 -20 -21 1 -2 -3 -4 22 0
18 19 -20 -21 -1 2 3 4 22 0
18 19 -20 -21 -1 2 3 -4 22 0
18 19 -20 -21 -1 2 -3 4 22 0
18 19 -20 -21 -1 2 -3 -4 22 0
18 19 -20 -21 -1 -2 3 4 22 0
18 19 -20 -21 -1 -2 3 -4 22 0
18 -19 20 21 1 2 3 4 22 0
18 -19 20 21 1 2 3 -4 22 0
18 -19 20 21 1 2 -3 4 22 0
18 -19 20 21 1 2 -3 -4 22 0
18 -19 20 21 1 -2 3 4 29 0
18 -19 20 21 1 -2 3 -4 30 0
18 -19 20 21 1 -2 -3 4 38 0
18 -19 20 21 1 -2 -3 -4 22 0
18 -19 20 21 -1 2 3 4 22 0
18 -19 20 21 -1 2 3 -4 22 0
18 -19 20 21 -1 2 -3 4 22 0
18 -19 20 21 -1 2 -3 -4 22 0
18 -19 20 21 -1 -2 3 4 22 0
18 -19 20 21 -1 -2 3 -4 22 0
18 -19 20 -21 1 2 3 4 22 0
18 -19 20 -21 1 2 3 -4 22 0
18 -19 20 -21 1 2 -3 4 22 0
18 -19 20 -21 1 2 -3 -4 22 0
18 -19 20 -21 1 -2 3 4 50 0
18 -19 20 -21 1 -2 3 -4 31 0
18 -19 20 -21 1 -2 -3 4 33 0
18 -19 20 -21 1 -2 -3 -4 22 0
18 -19 20 -21 -1 2 3 4 22 0
18 -19 20 -21 -1 2 3 -4 22 0
18 -19 20 -21 -1 2 -3 4 22 0
18 -19 20 -21 -1 2 -3 -4 22 0
18 -19 20 -21 -1 -2 3 4 22 0
18 -19 20 -21 -1 -2 3 -4 22 0
18 -19 -20 21 1 2 3 4 22 0
18 -19 -20 21 1 2 3 -4 22 0
18 -19 -20 21 1 2 -3 4 22 0
18 -19 -20 21 1 2 -3 -4 22 0
18 -19 -20 21 1 -2 3 4 22 0
18 -19 -20 21 1 -2 3 -4 35 0
18 -19 -20 21 1 -2 -3 4 47 0
18 -19 -20 21 1 -2 -3 -4 37 0
18 -19 -20 21 -1 2 3 4 22 0
18 -19 -20 21 -1 2 3 -4 22 0
18 -19 -20 21 -1 2 -3 4 22 0
18 -19 -20 21 -1 2 -3 -4 22 0
18 -19 -20 21 -1 -2 3 4 22 0
18 -19 -20 21 -1 -2 3 -4 22 0
18 -19 -20 -21 1 2 3 4 22 0
18 -19 -20 -21 1 2 3 -4 22 0
18 -19 -20 -21 1 2 -3 4 22 0
18 -19 -20 -21 1 2 -3 -4 22 0
18 -19 -20 -21 1 -2 3 4 22 0
18 -19 -20 -21 1 -2 3 -4 22 0
18 -19 -20 -21 1 -2 -3 4 49 0
18 -19 -20 -21 1 -2 -3 -4 34 0
18 -19 -20 -21 -1 2 3 4 41 0
18 -19 -20 -21 -1 2 3 -4 22 0
18 -19 -20 -21 -1 2 -3 4 22 0
18 -19 -20 -21 -1 2 -3 -4 22 0
18 -19 -20 -21 -1 -2 3 4 22 0
18 -19 -20 -21 -1 -2 3 -4 22 0
-18 19 20 21 1 2 3 4 22 0
-18 19 20 21 1 2 3 -4 22 0
-18 19 20 21 1 2 -3 4 22 0
-18 19 20 21 1 2 -3 -4 22 0
-18 19 20 21 1 -2 3 4 22 0
-18 19 20 21 1 -2 3 -4 22 0
-18 19 20 21 1 -2 -3 4 22 0
-18 19 20 21 1 -2 -3 -4 36 0
-18 19 20 21 -1 2 3 4 54 0
-18 19 20 21 -1 2 3 -4 42 0
-18 19 20 21 -1 2 -3 4 22 0
-18 19 20 21 -1 2 -3 -4 22 0
-18 19 20 21 -1 -2 3 4 22 0
-18 19 20 21 -1 -2 3 -4 22 0
-18 19 20 -21 1 2 3 4 22 0
-18 19 20 -21 1 2 3 -4 22 0
-18 19 20 -21 1 2 -3 4 22 0
-18 19 20 -21 1 2 -3 -4 22 0
-18 19 20 -21 1 -2 3 4 22 0
-18 19 20 -21 1 -2 3 -4 22 0
-18 19 20 -21 1 -2 -3 4 22 0
-18 19 20 -21 1 -2 -3 -4 22 0
-18 19 20 -21 -1 2 3 4 32 0
-18 19 20 -21 -1 2 3 -4 48 0
-18 19 20 -21 -1 2 -3 4 43 0
-18 19 20 -21 -1 2 -3 -4 22 0
-18 19 20 -21 -1 -2 3 4 22 0
-18 19 20 -21 -1 -2 3 -4 22 0
-18 19 -20 21 1 2 3 4 22 0
-18 19 -20 21 1 2 3 -4 22 0
-18 19 -20 21 1 2 -3 4 22 0
-18 19 -20 21 1 2 -3 -4 22 0
-18 19 -20 21 1 -2 3 4 22 0
-18 19 -20 21 1 -2 3 -4 22 0
-18 19 -20 21 1 -2 -3 4 22 0
-18 19 -20 21 1 -2 -3 -4 22 0
-18 19 -20 21 -1 2 3 4 22 0
-18 19 -20 21 -1 2 3 -4 53 0
-18 19 -20 21 -1 2 -3 4 45 0
-18 19 -20 21 -1 2 -3 -4 46 0
-18 19 -20 21 -1 -2 3 4 22 0
-18 19 -20 21 -1 -2 3 -4 22 0
-18 19 -20 -21 1 2 3 4 22 0
-18 19 -20 -21 1 2 3 -4 22 0
-18 19 -20 -21 1 2 -3 4 22 0
-18 19 -20 -21 1 2 -3 -4 22 0
-18 19 -20 -21 1 -2 3 4 22 0
-18 19 -20 -21 1 -2 3 -4 22 0
-18 19 -20 -21 1 -2 -3 4 22 0
-18 19 -20 -21 1 -2 -3 -4 22 0
-18 19 -20 -21 -1 2 3 4 22 0
-18 19 -20 -21 -1 2 3 -4 22 0
-18 19 -20 -21 -1 2 -3 4 39 0
-18 19 -20 -21 -1 2 -3 -4 52 0
-18 19 -20 -21 -1 -2 3 4 51 0
-18 19 -20 -21 -1 -2 3 -4 22 0
-18 -19 20 21 1 2 3 4 22 0
-18 -19 20 21 1 2 3 -4 22 0
-18 -19 20 21 1 2 -3 4 22 0
-18 -19 20 21 1 2 -3 -4 22 0
-18 -19 20 21 1 -2 3 4 22 0
-18 -19 20 21 1 -2 3 -4 22 0
-18 -19 20 21 1 -2 -3 4 22 0
-18 -19 20 21 1 -2 -3 -4 22 0
-18 -19 20 21 -1 2 3 4 22 0
-18 -19 20 21 -1 2 3 -4 22 0
-18 -19 20 21 -1 2 -3 4 22 0
-18 -19 20 21 -1 2 -3 -4 22 0
-18 -19 20 21 -1 -2 3 4 40 0
-18 -19 20 21 -1 -2 3 -4 22 0
-18 -19 20 -21 1 2 3 4 22 0
-18 -19 20 -21 1 2 3 -4 22 0
-18 -19 20 -21 1 2 -3 4 22 0
-18 -19 20 -21 1 2 -3 -4 22 0
-18 -19 20 -21 1 -2 3 4 22 0
-18 -19 20 -21 1 -2 3 -4 22 0
-18 -19 20 -21 1 -2 -3 4 22 0
-18 -19 20 -21 1 -2 -3 -4 22 0
-18 -19 20 -21 -1 2 3 4 22 0
-18 -19 20 -21 -1 2 3 -4 22 0
-18 -19 20 -21 -1 2 -3 4 22 0
-18 -19 20 -21 -1 2 -3 -4 22 0
-18 -19 20 -21 -1 -2 3 4 22 0
-18 -19 20 -21 -1 -2 3 -4 23 0
